p cnf 100 160
18 85 -55 0
-22 41 -47 0
-55 93 17 0
-47 21 92 0
-2 23 -98 0
-28 -91 61 0
33 -41 26 0
-14 -9 38 0
-87 -17 25 0
88 52 -72 0
-36 -61 45 0
97 67 48 0
53 47 -5 0
36 -52 -65 0
-80 6 -47 0
53 17 -29 0
2 -70 71 0
-27 58 96 0
70 -95 -7 0
-3 -8 -37 0
-16 50 66 0
46 1 37 0
72 -93 65 0
-8 76 -34 0
-71 -51 -8 0
64 68 67 0
74 -79 -67 0
72 58 -94 0
13 29 -98 0
-37 -84 -61 0
-14 -63 -22 0
6 -23 13 0
48 98 -1 0
82 67 -56 0
38 78 -65 0
-70 -35 -97 0
65 73 -70 0
-83 64 67 0
56 -12 -83 0
-62 93 53 0
-44 39 -89 0
-9 -46 83 0
53 78 -28 0
8 88 29 0
19 72 -67 0
84 -26 -93 0
85 -59 14 0
7 -92 60 0
97 76 -25 0
-89 -87 -81 0
-88 -2 91 0
94 58 49 0
44 99 63 0
31 -72 52 0
89 14 -50 0
-90 38 -57 0
-40 78 88 0
36 32 -95 0
50 35 -81 0
-78 -71 -99 0
96 34 64 0
-76 43 -57 0
93 -76 18 0
-22 -8 23 0
11 -39 -8 0
81 -62 -5 0
22 -91 1 0
-90 -68 -63 0
-9 -77 -21 0
59 14 93 0
63 -13 -37 0
15 73 -18 0
5 59 2 0
-8 22 -10 0
-21 -94 -90 0
-71 -8 -25 0
-69 56 51 0
31 27 -2 0
37 -31 52 0
-45 -99 66 0
52 -53 22 0
-50 -3 -34 0
59 -54 -85 0
42 31 86 0
-89 -86 76 0
-25 18 17 0
75 77 22 0
-84 58 -49 0
95 16 -93 0
-33 -15 54 0
-62 37 -74 0
-69 -72 -3 0
-100 -16 10 0
-54 18 -3 0
-28 76 84 0
-50 -90 80 0
-14 -100 69 0
-25 47 -7 0
-81 56 36 0
-89 42 19 0
x 3 -4 6 14 16 -17 -18 21 24 26 30 31 -34 38 40 -44 -50 51 54 56 58 -62 64 -67 72 -73 74 76 77 -78 -79 82 -83 86 87 88 -89 -90 91 -92 93 95 -97 100 0
x -4 -6 7 8 -9 -10 -14 19 -20 21 -22 23 27 -28 31 -36 40 41 43 44 -48 50 53 56 -57 -66 -67 -70 -71 -72 -73 75 -77 -85 86 87 90 -93 -95 96 -97 -99 100 0
x 2 6 8 -9 10 11 -13 -16 17 21 -24 -26 27 29 31 32 33 -35 36 38 -40 42 43 45 -47 -49 -50 51 54 55 -60 64 65 66 68 -70 -71 -75 76 79 81 -82 -88 -89 94 96 -97 98 -99 -100 0
x -1 2 -3 -6 -8 12 13 -16 17 19 20 21 -23 25 -27 28 30 -32 -34 -35 -36 37 -38 -41 -42 43 -46 47 -48 54 55 -56 59 60 61 -62 63 -66 67 -68 71 72 -73 76 -77 -78 -79 80 -81 -84 -85 -87 91 -92 -93 -94 95 0
x -1 -3 -5 -6 10 11 -12 13 -16 -17 20 -21 -23 -25 -27 29 32 36 37 -38 40 42 -44 -46 -47 49 -51 -54 56 -57 -58 -59 62 -63 64 65 -68 -72 -73 76 77 78 -79 -80 -81 -82 -83 88 89 90 -95 -97 -99 100 0
x 2 3 -4 -9 12 13 -14 -15 16 18 -22 -23 -24 28 -30 39 40 41 -43 47 -48 -49 -50 53 54 -56 -58 61 -62 -64 65 67 68 70 -71 72 -73 78 -79 -80 -86 87 88 89 -90 91 94 -95 96 -100 0
x -5 -6 -7 8 9 10 14 17 -18 22 -26 27 28 29 -30 31 32 -33 -36 -38 39 -52 55 -56 -60 -61 -63 -65 67 -68 69 72 73 75 76 78 -79 -81 -83 86 87 -89 90 91 -93 94 -96 -97 -98 0
x -2 3 -7 -10 11 13 -16 17 19 20 22 26 27 28 29 -31 32 -36 37 -40 -41 42 43 -44 45 -47 48 -50 -53 54 56 -58 60 -61 63 -64 65 68 69 -75 -76 77 78 79 80 -81 -82 84 -85 86 -87 91 -92 94 96 -99 0
x -1 -2 3 4 -8 -9 -13 16 17 -19 23 24 27 -28 29 -30 31 -34 37 38 40 41 -42 -43 50 54 -62 64 66 69 -71 -72 -73 74 76 78 -81 -82 -86 -87 -93 95 -96 97 98 0
x -1 2 -5 6 -9 10 -16 17 -19 -21 25 -28 30 -33 -35 38 39 -40 -41 43 44 45 -47 -48 -49 -51 52 53 -54 56 -62 63 65 67 -68 -69 -70 -71 73 74 75 79 -80 -83 84 -85 87 -88 89 -90 -91 92 -93 94 96 97 98 0
x -3 -5 10 14 15 -16 18 20 -24 -26 29 -31 -37 -38 39 43 -45 -46 47 48 51 -56 57 58 -62 69 70 72 -74 -75 76 -79 -80 -83 87 -89 91 -92 97 -98 -99 100 0
x 1 2 -3 -4 5 -7 -11 -12 -13 16 18 19 20 -21 23 24 27 28 32 -38 41 42 43 44 -46 50 51 52 -54 56 57 -60 62 63 -65 -68 -69 70 -73 -75 -76 -77 81 -83 -85 -88 89 90 91 -94 96 -98 0
x -2 -5 6 -8 11 12 -13 -14 16 -19 21 -22 23 24 -25 -27 28 34 -37 -38 40 43 50 -54 55 -57 58 59 -60 62 65 69 71 72 -75 76 -78 80 83 -85 89 -90 91 -94 -95 -97 99 -100 0
x 1 -2 4 -7 -8 9 -11 12 -13 -16 -22 -27 -28 -29 31 -38 -40 41 -42 -44 45 -46 -47 48 -49 -57 58 60 -61 66 67 72 -74 76 -79 80 84 -85 -88 91 92 93 -95 -96 -97 0
x -1 2 3 -4 11 -12 14 17 -18 20 21 22 -24 -25 -28 -29 30 -33 -36 -37 38 39 -44 -45 -47 48 -49 50 51 54 -55 56 57 58 -60 64 65 67 -68 69 -70 71 -72 -73 75 76 -78 -81 -83 -86 -87 94 96 -97 -98 99 0
x -1 4 -6 -10 13 15 -16 17 -18 20 -26 28 -31 32 33 35 36 -37 38 40 44 -46 48 -50 54 -55 59 65 66 -68 -70 -76 81 83 86 87 88 -89 91 -93 -94 97 98 0
x -3 4 -6 -7 -14 16 18 -19 -20 -21 22 23 -24 -25 -26 27 -29 -31 -32 -34 35 -38 -40 -42 -43 44 46 -47 -49 -51 -52 -53 -54 -55 -57 -59 -61 -62 -63 -64 -65 67 -69 -70 74 -76 -77 81 82 83 85 89 -90 91 -93 -94 -95 97 0
x -2 -4 5 6 -7 9 -10 11 12 13 -14 -17 19 23 -24 25 -26 -29 -31 -33 35 -36 -37 -38 -39 41 43 -44 -47 48 51 -52 -53 54 -55 -57 59 62 63 -66 -69 72 -75 -76 -77 80 81 83 84 -85 87 -90 -91 95 -96 97 98 -99 0
x -1 3 5 -7 -9 14 -17 19 -24 -26 27 29 32 33 34 -35 36 -37 38 -40 43 -48 -54 -55 56 57 58 62 -67 71 -74 78 -80 81 82 -87 -89 -90 93 -96 99 0
x 2 -3 6 7 -9 -10 -11 12 14 -19 21 -27 -28 -30 -31 34 -35 36 -38 -41 44 48 -52 55 56 -57 -58 -60 -61 -62 -66 -67 68 -69 -82 -83 -85 -86 87 89 91 -93 96 97 -100 0
x -2 -3 4 -5 -8 10 -11 -14 -15 -16 17 18 19 22 -24 -25 -29 31 36 -37 38 -41 42 -43 45 47 50 -51 52 -53 54 55 56 58 -59 -60 -62 -65 67 -68 -69 73 74 75 76 78 -80 -81 82 -87 -89 -90 -91 92 -93 -96 -97 -98 0
x 7 -8 -9 -10 12 -15 -16 -17 19 -23 -26 27 -29 -31 -33 -34 37 -42 45 -46 -49 57 -58 59 -60 -61 65 67 68 -70 -71 77 -82 -83 84 -87 -91 -97 -98 100 0
x 1 2 3 7 -8 9 -14 15 -18 -23 25 -27 -28 32 33 34 -36 -37 38 43 44 -46 -49 -52 -55 -59 -60 63 -69 -70 -71 -72 75 79 80 -83 85 -86 -87 -88 90 -99 0
x 1 -2 -3 7 -10 11 12 -14 -15 17 20 -23 -24 25 28 -30 -33 -35 -36 -38 -40 -41 -43 -46 47 -48 51 -52 54 56 -57 59 60 -61 -66 67 -68 -71 72 -73 -76 77 79 80 81 83 86 88 -90 97 -98 100 0
x -2 6 -8 -10 -11 -14 -15 -16 -17 18 -19 -20 24 26 28 -29 32 36 38 41 44 45 -49 -53 -55 57 61 -64 -65 67 69 -70 -71 72 74 76 -78 -79 -80 -82 -84 -86 -87 -88 91 -94 -95 -96 99 0
x 3 -5 6 11 12 13 14 20 22 -23 25 -27 28 32 -41 -42 -44 46 47 -48 -62 63 -65 69 -73 74 77 79 -80 -82 -83 84 88 91 96 97 -99 0
x -1 2 3 4 -5 9 11 12 -14 17 -18 -19 -20 23 24 25 27 28 -29 -31 -32 -36 -38 39 -40 -41 -43 -46 47 -49 52 53 56 57 -58 60 62 65 -66 -68 -70 -71 -72 -74 -75 -78 80 -84 88 -89 -90 -92 -94 -95 96 98 0
x -1 2 3 5 -6 7 -9 -10 -11 12 -13 -18 -20 22 23 24 25 -26 27 -28 32 -33 -35 37 -38 -39 -40 42 -43 -46 -47 48 -50 -51 -52 -59 -61 62 -63 -65 66 68 -69 -71 73 -75 76 79 -83 85 -86 88 -89 -90 91 97 0
x 5 -6 7 10 -11 13 -16 17 -19 22 -27 -29 30 32 -33 35 -36 -39 40 -41 43 -45 46 -48 49 -51 -54 55 57 -58 -59 -62 64 65 -69 -71 72 73 -75 76 77 78 80 -85 -87 -88 -89 -97 -98 -100 0
x 1 5 -8 -10 -11 12 -13 17 -18 25 26 -28 -31 33 39 40 -41 42 44 -45 46 47 50 -51 -53 -56 57 59 -62 -65 68 71 -74 -76 77 -78 -82 83 84 -86 -87 92 93 -94 0
x -3 5 -8 9 10 15 17 -18 20 21 -22 -24 -25 36 -39 42 -43 -44 -45 46 48 -49 54 -56 -58 -59 61 62 64 65 -67 -68 72 -73 -74 -75 79 80 83 -84 -85 86 -88 90 92 95 98 0
x 1 2 6 -9 10 11 -14 -15 -16 17 20 23 24 27 -32 -33 34 -36 37 38 -39 -41 -42 -44 45 46 49 -51 -54 55 58 -61 -65 -66 67 -69 -70 73 -74 -75 77 79 81 -82 83 87 -88 91 -92 93 94 -97 -98 99 100 0
x -6 -8 -12 -17 -18 -19 20 -22 -25 27 29 30 -31 32 34 35 -36 -38 42 43 47 -48 -49 -50 51 -53 -54 55 56 -57 58 61 -63 65 -66 67 68 -69 -71 -76 78 79 -80 81 82 84 -85 -87 88 -90 91 94 96 -97 0
x -1 -2 3 -4 5 7 -8 -10 11 14 -15 16 -17 -18 -19 -20 24 25 -26 27 -29 30 32 35 36 38 40 42 47 49 50 54 55 56 -58 -59 -60 62 67 69 -71 -73 -75 -77 78 79 80 82 -83 84 -87 88 -90 92 -93 -94 95 96 97 -98 0
x -1 -2 -5 -6 -8 -10 -11 12 15 -17 18 -20 -21 25 27 -28 -32 37 38 39 41 43 51 54 56 -57 -58 59 -60 61 64 -65 -66 67 -68 -69 71 -72 -73 74 -78 80 -81 -82 84 85 89 90 94 96 -97 0
x 1 3 4 -8 9 -12 13 -14 15 -17 19 20 -23 -29 -30 31 33 -35 -37 39 -41 -42 43 -45 53 -54 -57 -58 59 60 61 -62 63 -64 -65 66 67 69 70 71 -72 -74 -79 80 82 -83 -85 87 88 -90 91 -92 -93 -95 96 -98 -99 0
x -2 3 -4 -7 -8 -9 10 11 12 -15 16 -20 -21 -22 23 24 -28 31 33 -34 -37 -38 -40 42 -44 -47 -48 -49 -53 54 57 -59 -60 61 -68 69 -70 -71 -74 79 80 84 -86 87 -89 92 -93 -95 96 97 98 99 -100 0
x 2 -3 4 5 6 7 -8 -9 -10 -11 -14 -15 -17 -20 -21 -24 -28 30 32 33 34 38 39 40 43 45 -46 47 50 -51 -55 56 61 -62 63 66 -68 -69 -72 -74 76 -77 81 -83 85 86 -89 -94 96 97 -98 -100 0
x -1 2 4 6 7 -9 -11 15 -17 20 23 -32 -33 -34 -35 36 38 -39 40 -43 -44 46 -47 -48 -49 51 52 53 -56 57 58 61 64 -69 71 -73 -74 75 76 -78 -80 81 -83 -86 -88 89 90 91 92 94 -96 -99 0
x 2 4 -5 -7 8 -9 -11 12 -15 -16 17 18 20 21 -22 -23 25 -29 30 32 -33 -34 35 37 -39 -40 42 -43 44 -45 -54 -57 -60 -61 62 63 66 -67 68 70 -71 -72 74 -75 78 -80 82 -85 -86 -87 -88 89 -92 93 -94 -95 -96 0
x -1 2 6 -7 13 14 -19 -21 22 -24 -25 26 28 29 30 -32 -36 38 -39 43 -44 48 -49 -50 -51 -52 -55 57 58 59 -63 64 65 -68 70 -72 -75 -81 83 -84 -86 -88 89 93 94 95 -98 -100 0
x -3 -6 -7 9 -12 -13 -14 -17 18 22 -23 25 -26 28 29 33 34 35 36 37 38 -39 -41 42 -45 46 -48 -51 53 -54 55 -56 -57 -59 -60 -61 -62 66 68 72 -73 74 -75 79 -80 -83 -84 -86 87 -88 -89 90 -91 -94 -96 -97 -100 0
x 1 -2 3 -5 -6 -7 -8 11 12 -13 -15 -16 -17 20 -22 -23 24 27 30 -32 -34 -35 36 37 -39 -44 46 47 48 -50 -52 55 -57 -59 -60 61 63 68 71 72 76 -81 87 90 92 -94 100 0
x -1 -4 -5 -6 -7 9 -11 13 -15 18 20 -22 -23 25 26 -28 -29 -31 35 -36 38 -41 43 -44 45 47 48 54 -55 57 58 -59 -61 -63 66 -67 -68 70 71 -72 73 74 -78 80 -81 84 85 86 87 -93 -94 -95 96 97 99 0
x -1 -2 4 -5 -7 10 13 -14 -17 -18 -19 -24 26 -27 -29 30 -32 37 -42 44 -47 -48 -49 50 -53 -54 -61 -63 -64 -67 72 73 75 77 79 -88 90 -92 93 95 96 97 -98 99 -100 0
x -8 -9 -13 -16 19 20 -21 24 30 33 35 37 -41 44 -49 51 -53 55 -59 60 -61 -64 -66 -68 -71 72 -73 -74 -76 -79 80 81 82 -85 -87 -88 90 -94 95 96 0
x 2 3 5 -7 -10 11 12 -22 -24 -25 -30 -31 -32 34 -35 -36 -38 42 45 -47 48 49 -51 -52 -54 57 60 63 64 65 66 -67 -69 72 -73 -74 -75 -77 -82 -84 -86 -88 94 95 -96 -97 -98 -99 0
x 1 3 -5 -7 -12 15 -16 -18 20 -21 -24 25 31 -32 35 36 37 38 39 40 41 42 43 44 -46 55 -58 -59 61 -62 -63 64 -65 68 -69 70 -73 -74 -75 -76 -77 78 -79 80 -85 -86 -87 -88 -90 91 -92 93 -95 -98 99 100 0
x -1 4 6 -7 -8 -10 -12 -13 -16 18 21 22 -26 -27 -32 33 36 -37 -42 -46 -47 48 -51 -54 56 -57 -58 -59 60 62 -63 64 -65 66 -68 -70 71 -73 -74 76 -77 79 81 -82 -83 84 -85 88 92 -93 96 -100 0
x -2 3 5 8 9 12 -13 -15 -16 -19 21 -28 -31 32 33 36 37 38 -41 43 46 47 -48 -49 52 53 55 57 -60 68 71 73 -75 -76 77 78 -84 88 -92 93 -95 -99 0
x -4 -6 10 -13 -14 -15 19 -21 22 -23 -27 30 31 -34 35 -38 41 43 -46 -49 50 -51 -52 53 -55 -56 -60 61 63 -65 -66 68 69 -70 -73 74 75 77 -80 84 88 90 -91 93 -95 96 97 98 99 100 0
x 5 6 -7 -8 9 10 11 12 -13 15 17 18 19 -21 -24 -25 27 -36 38 -39 40 -41 42 43 -46 -48 49 -52 -54 55 -66 67 69 -71 -73 -77 -79 -80 -82 -85 -86 -87 -88 89 91 92 94 -97 -99 100 0
x -1 3 5 -8 9 10 13 -15 -16 -20 22 -23 24 -28 29 -31 32 34 37 38 40 -41 -43 -44 -45 -48 50 52 53 55 -56 -57 60 -63 -65 -66 67 68 71 -72 -73 -75 76 82 -83 86 -87 88 89 -90 91 -92 93 -94 98 -99 -100 0
x -1 2 5 -7 8 10 -11 -13 15 -17 19 -22 -23 -24 25 -26 -27 29 31 -34 35 36 37 39 -40 -42 46 53 -56 57 58 61 -62 64 -65 -66 67 -68 73 74 -76 -79 83 -84 -86 90 -92 93 94 95 96 -99 100 0
x 1 -2 4 5 -9 -10 13 -17 18 -19 -21 -22 24 25 29 -32 -35 -40 43 -44 45 -46 -48 52 53 56 58 -60 63 64 65 -66 -74 -76 77 -81 -82 -84 -89 91 93 94 -95 -97 -99 0
x -1 -3 -5 -14 15 -16 -21 22 26 -27 28 29 -30 -33 37 -40 -42 51 52 -53 -54 -57 -58 59 61 -67 -69 -70 71 73 74 75 -80 82 84 -85 88 -90 -91 -92 -96 -97 99 0
x -1 4 -10 -11 12 13 -16 17 -18 -20 -22 23 -24 -26 -28 29 -31 35 36 -37 -42 43 44 -45 -51 53 57 -60 64 -66 67 68 -69 -70 -71 72 -75 79 -87 -90 91 92 93 94 95 97 -98 0
x -2 -6 -8 -9 -10 -11 -14 -15 -17 20 -21 25 -26 -27 28 29 -34 -41 -42 46 -49 50 52 -56 -57 -59 60 -61 63 64 66 -68 -69 70 71 -72 73 -74 -79 -82 83 85 -86 -87 -90 91 92 95 -96 97 -99 -100 0
x 2 3 -5 9 -14 16 25 26 27 28 -29 30 -31 -35 36 37 -38 39 -43 51 53 54 -58 59 -60 -62 -63 66 69 -70 -71 73 -75 79 -82 83 86 87 -88 -89 -90 94 98 0
x -1 2 4 5 6 -7 9 -10 11 -16 19 20 21 -23 -25 29 -33 34 35 36 -38 -39 -40 43 44 45 -49 50 -51 52 -53 56 -58 -61 -65 66 -67 68 -70 71 -74 -77 -80 -81 -82 -85 -90 92 -94 96 97 99 0
